59 28 96 63 88 15 85 53 35 43 12 24 23 32 65 72 24 36 26 50 90 41 23 98 85 
88 98 49 28 43 98 53 52 84 66 23 80 36 21 23 91 61 96 64 45 76 30 45 88 66 
87 79 27 48 36 19 17 26 60 92 38 63 67 17 71 76 76 79 20 82 65 60 53 16 49 
91 34 20 10 82 33 67 54 11 98 20 30 29 48 18 46 97 44 39 42 44 50 14 47 17 
77 41 83 74 49 59 41 27 42 83 96 53 37 28 92 83 33 85 25 72 73 80 34 29 82 
739
53 87 28 96 16 31 90 67 50 75 11 44 91 59 70 55 66 95 80 72 12 65 77 83 96 
784
28 95 40 21 31 12 77 30 17 88 21 91 40 60 44 60 86 16 91 39 29 48 16 72 29 
590
99 76 17 97 95 12 41 60 28 78 63 19 54 26 44 65 69 48 75 56 14 39 50 98 49 
686
